119 48 011 1
1
326 113 1
309 114 1
244 115 1
299 116 1
325 117 1
271 118 1
187 119 1
219 108 1
293 109 1
251 110 1
291 111 1
304 112 1
187 113 1
308 114 1
320 115 1
255 116 1
287 117 1
271 118 1
290 119 1
238 108 1
252 109 1
283 110 1
282 111 1
245 112 1
233 113 1
222 114 1
226 115 1
238 116 1
327 117 1
333 118 1
294 119 1
280 108 1
290 109 1
354 110 1
267 111 1
246 112 1
222 113 1
235 114 1
226 115 1
234 116 1
279 117 1
256 118 1
269 119 1
295 108 1
343 109 1
326 110 1
340 111 1
313 112 1
1
1
1
1
1
1
1
1
1
1
1
1
1
1
1
1
1
1
1
1
1
1
1
1
1
1
1
1
1
1
1
1
1
1
1
1
1
1
1
1
1
1
1
1
1
1
1
1
1
1
1
1
1
1
1
1
1
1
1 9 218 21 237 33 279 45 294
1 10 292 22 251 34 289 46 342
1 11 250 23 282 35 353 47 325
1 12 290 24 281 36 266 48 339
1 13 303 25 244 37 245 49 312
1 2 325 14 186 26 232 38 221
1 3 308 15 307 27 221 39 234
1 4 243 16 319 28 225 40 225
1 5 298 17 254 29 237 41 233
1 6 324 18 286 30 326 42 278
1 7 270 19 270 31 332 43 255
1 8 186 20 289 32 293 44 268
